Input: ticf-14crafa.prec25.dzn
============================================================
Total Runtime: 4.5441 seconds
Input parsing: 0.0008 seconds
Constraint building: 1.0248 seconds
MaxSAT solving: 2.8233 seconds
============================================================

Total variables: 324136
Total clauses: 682640
MaxSAT found with cost: 0
NO SOLUTION FOUND
